011010111110111010010010011100001001000110111111011010100000100111001100110111110001111110111011001100110110101000001111000011001111001111000000010111001100000000000011001010100100011100111110001111010011010001010000010001100001111001001111000101100001000100011101010010011110110101010000001001110101010110001100101010001111110001110001011101001110010110110010000000011100110010001001111010110101101001100110110001100110000100111011001000001100001110001001100000111000000010011001011101010001101101010110011011111110001001110000001110101110011101001010101101110011111100110101110001011000100111101010100111101100011000000101101011001110110011000110100000001111100100100001101111010101001010010101100101111010011001000101001110110001001011001000010000010001010000001010011000111011010111111010110110111110001011010111101010111001010111000110000100101110001101001111100011011000011010001101101101001111100101000111001110110110010100001110100000001000000101111010100000000011011100001111011000000100000010001100011001011101100001001001110010101100111011100011101101011101111101110001100110001001101000101000111111110111111011100101100100001111100010100100000111010001110110101010110100010001010000111000110001111101101110011010111110101100010010110010000001010101111010110100101101110001101010111110001101010111111001101111101011011100100011101111